(set-logic QF_S)
(declare-fun var0 () String)
(assert (str.in.re var0 (re.++ (re.* (re.union (str.to.re "000") (str.to.re "111"))) (re.++ (re.union (re.* (str.to.re "2")) (re.+ (str.to.re "3"))) (re.++ (re.+ (re.union (str.to.re "44") (str.to.re "555"))) (re.++ (re.union (re.union (str.to.re "66") (str.to.re "77")) (re.* (str.to.re "888"))) (re.++ (re.union (re.+ (str.to.re "9")) (re.union (str.to.re "aaa") (str.to.re "bbb"))) (re.++ (re.+ (re.+ (str.to.re "cc"))) (re.++ (re.+ (re.* (str.to.re "dd"))) (re.++ (re.union (re.+ (str.to.re "e")) (re.+ (str.to.re "f"))) (re.++ (re.+ (re.union (str.to.re "gg") (str.to.re "h"))) (re.++ (re.+ (re.union (str.to.re "i") (str.to.re "j"))) (re.++ (re.* (re.+ (str.to.re "k"))) (re.++ (re.+ (re.* (str.to.re "ll"))) (re.++ (re.union (re.* (str.to.re "mmm")) (re.union (str.to.re "nnn") (str.to.re "ooo"))) (re.++ (re.union (re.* (str.to.re "pp")) (re.* (str.to.re "qqq"))) (re.++ (re.* (re.* (str.to.re "rrr"))) (re.++ (re.union (re.+ (str.to.re "s")) (re.union (str.to.re "t") (str.to.re "uu"))) (re.++ (re.* (re.union (str.to.re "v") (str.to.re "w"))) (re.++ (re.union (re.union (str.to.re "x") (str.to.re "yy")) (re.* (str.to.re "zzz"))) (re.++ (re.union (re.union (str.to.re "AAA") (str.to.re "B")) (re.* (str.to.re "CCC"))) (re.++ (re.+ (re.* (str.to.re "DDD"))) (re.++ (re.+ (re.* (str.to.re "E"))) (re.++ (re.+ (re.+ (str.to.re "FF"))) (re.++ (re.union (re.union (str.to.re "GGG") (str.to.re "HHH")) (re.union (str.to.re "III") (str.to.re "JJJ"))) (re.++ (re.* (re.* (str.to.re "K"))) (re.++ (re.+ (re.* (str.to.re "LLL"))) (re.++ (re.union (re.* (str.to.re "MMM")) (re.* (str.to.re "NN"))) (re.++ (re.* (re.union (str.to.re "OOO") (str.to.re "P"))) (re.++ (re.union (re.* (str.to.re "QQQ")) (re.* (str.to.re "RRR"))) (re.++ (re.union (re.union (str.to.re "S") (str.to.re "T")) (re.union (str.to.re "UU") (str.to.re "VVV"))) (re.++ (re.* (re.union (str.to.re "WW") (str.to.re "XXX"))) (re.++ (re.+ (re.* (str.to.re "YYY"))) (re.++ (re.* (re.+ (str.to.re "ZZZ"))) (re.++ (re.+ (re.+ (str.to.re "!!"))) (re.++ (re.+ (re.union (str.to.re """""") (str.to.re "##"))) (re.++ (re.+ (re.* (str.to.re "$$$"))) (re.++ (re.union (re.* (str.to.re "%")) (re.+ (str.to.re "&&&"))) (re.++ (re.union (re.* (str.to.re "''")) (re.union (str.to.re "(((") (str.to.re "))"))) (re.++ (re.* (re.union (str.to.re "***") (str.to.re "+"))) (re.++ (re.+ (re.+ (str.to.re ",,"))) (re.++ (re.union (re.union (str.to.re "-") (str.to.re ".")) (re.* (str.to.re "/"))) (re.++ (re.union (re.union (str.to.re ":::") (str.to.re ";;;")) (re.union (str.to.re "<<<") (str.to.re "=="))) (re.++ (re.* (re.union (str.to.re ">") (str.to.re "?"))) (re.* (re.union (str.to.re "@") (str.to.re "[[[")))))))))))))))))))))))))))))))))))))))))))))))
(check-sat)